1000
[151,152,153,154,155,156,157,158,159,160,161,162,163,164,165,166,167,169,170,172,173,174,175,176,177,178,179,181,182,183,184,185,186,188,189,190,191,192,193,195,196,197,198,199]
[3,3,4,2,2,1,5,1,4,3,2,1,2,5,1,2,3,1,6,2,3,1,3,3,1,5,3,2,3,3,2,2,2,4,4,2,5,2,4,1,5,3,2,2]
